20	5
0	4	4	3	2	1
1	1	13
2	1	7
3	1	9
4	1	8
5	2	6	19
6	0
7	2	20	11
8	2	18	5
9	1	10
10	1	15
11	1	16
12	2	17	18
13	1	12
14	1	21
15	1	21
16	1	21
17	1	21
18	1	21
19	1	21
20	1	21
21	0
0	0	0	0	0	0	0
1	7	2	1	0	3	3
2	5	0	4	0	0	0
3	5	4	3	1	0	0
4	8	2	2	1	3	4
5	1	0	2	3	4	5
6	7	0	0	3	2	0
7	5	1	3	0	3	0
8	9	3	4	5	5	5
9	10	4	2	4	5	0
10	5	1	3	3	5	1
11	10	5	0	1	3	4
12	8	0	0	4	0	0
13	5	4	0	0	4	3
14	6	4	2	4	1	5
15	5	1	5	2	1	3
16	5	5	5	4	2	2
17	8	4	3	4	5	5
18	6	3	3	0	0	3
19	1	0	3	3	5	3
20	6	5	5	0	1	4
21	0	0	0	0	0	0
5	5	5	5	5
